CMPL model generation - running

CMPL version: 1.11.0
Authors: Thomas Schleiff, Mike Steglich
Distributed under the GPLv3 

create model instance ...
write model instance ...
CMPL model generation - finished

Solver - running


Welcome to IBM(R) ILOG(R) CPLEX(R) Interactive Optimizer 12.7.1.0
  with Simplex, Mixed Integer & Barrier Optimizers
5725-A06 5725-A29 5724-Y48 5724-Y49 5724-Y54 5724-Y55 5655-Y21
Copyright IBM Corp. 1988, 2017.  All Rights Reserved.

Type 'help' for a list of available commands.
Type 'help' followed by a command name for more
information on commands.

CPLEX> Specified objective sense: MINIMIZE
Selected objective  name:  line[1]
Selected RHS        name:  RHS
Selected bound      name:  BOUND
Problem '/tmp/cmpl.T15179.mps' read.
Read time = 0.05 sec. (10.22 ticks)
CPLEX> CPXPARAM_Read_APIEncoding                        "UTF-8"
Tried aggregator 3 times.
MIP Presolve eliminated 22984 rows and 35544 columns.
MIP Presolve modified 599 coefficients.
Aggregator did 1753 substitutions.
Reduced MIP has 3185 rows, 5158 columns, and 15288 nonzeros.
Reduced MIP has 4948 binaries, 0 generals, 0 SOSs, and 0 indicators.
Presolve time = 0.06 sec. (55.81 ticks)
Found incumbent of value 4724.896304 after 0.12 sec. (109.74 ticks)
Probing time = 0.01 sec. (2.76 ticks)
Tried aggregator 1 time.
MIP Presolve eliminated 0 rows and 68 columns.
Reduced MIP has 3185 rows, 5090 columns, and 15152 nonzeros.
Reduced MIP has 5090 binaries, 0 generals, 0 SOSs, and 0 indicators.
Presolve time = 0.02 sec. (14.12 ticks)
Probing time = 0.01 sec. (2.96 ticks)
Clique table members: 4428.
MIP emphasis: balance optimality and feasibility.
MIP search method: dynamic search.
Parallel mode: none, using 1 thread.
Root relaxation solution time = 0.02 sec. (21.76 ticks)

        Nodes                                         Cuts/
   Node  Left     Objective  IInf  Best Integer    Best Bound    ItCnt     Gap

*     0+    0                         4724.8963        0.0000           100.00%
*     0     0      integral     0     2160.8198     2160.8198     1331    0.00%
Elapsed time = 0.19 sec. (161.74 ticks, tree = 0.00 MB, solutions = 2)

Root node processing (before b&c):
  Real time             =    0.19 sec. (163.32 ticks)
Sequential b&c:
  Real time             =    0.00 sec. (0.00 ticks)
                          ------------
Total (root+branch&cut) =    0.19 sec. (163.32 ticks)

Solution pool: 2 solutions saved.

MIP - Integer optimal solution:  Objective =  2.1608198130e+03
Solution time =    0.19 sec.  Iterations = 1331  Nodes = 0
Deterministic time = 163.44 ticks  (840.62 ticks/sec)

CPLEX> Incumbent solution written to file '/tmp/cmpl.T15179.gsol'.
CPLEX> 
CMPL: Time used for model generation: 0 seconds
CMPL: Time used for solving the model: 1 seconds


Solution written to ASCII file: results/output_generated/2016-10-03-5/fair-nonlinear.sol

Solver - finished
